Traveling Salesman Problem/TSP_generados/Aleatorio1620391011_12.tsp
NAME: Aleatorio1620391011_12.tsp
COMMENT: Randomly generated scenario
TYPE: TSP
DIMENSION: 12
EDGE_WEIGHT_TYPE: ATT
NODE_COORD_SECTION
1 5.47 27.49
2 35.23 31.78
3 48.08 41.47
4 41.54 5.71
5 44.09 10.85
6 25.6 47.08
7 42.82 29.5
8 49.22 41.27
9 12.93 12.82
10 41.06 40.11
11 12.55 19.92
12 19.82 22.93
