Traveling Salesman Problem/TSP_generados/Aleatorio1620391011_12.opt.tour
NAME: Aleatorio1620391011_12.opt.tour
COMMENT: Optimal solution for Aleatorio1620391011_12 (159.8987249064108)
TYPE: TOUR
DIMENSION: 12
TOUR_SECTION
1 6 2 10 3 8 7 5 4 12 9 11
-1
EOF
